%chk=6YDI_dioxygen_small_opt.chk
%mem=64GB
%nprocshared=16
#p guess=(only,fragment=5) def2tzvp int=grid=ultrafine iop(3/76=1000001500,3/77=0720008500,3/78=0810010000) ublyp

CLR

0 1 2 5 -2 1 2 -5 0 1 -2 1
 H(Fragment=5)     36.64000000  -93.72500000   17.71000000
 C(Fragment=5)     36.91900000  -92.87600000   17.08600000
 H(Fragment=5)     37.60600000  -93.20700000   16.30700000
 C(Fragment=5)     35.67200000  -92.18500000   16.53300000
 H(Fragment=5)     35.10300000  -91.73200000   17.34100000
 H(Fragment=5)     35.99700000  -91.37400000   15.88200000
 C(Fragment=5)     34.73500000  -93.08800000   15.76200000
 H(Fragment=5)     34.29600000  -93.82700000   16.38200000
 H(Fragment=5)     33.91100000  -92.47800000   15.39300000
 C(Fragment=5)     35.38300000  -93.75900000   14.57500000
 O(Fragment=5)     36.52300000  -93.48200000   14.35400000
 O(Fragment=5)     34.73900000  -94.55400000   13.91000000
 H(Fragment=5)     37.46100000  -92.16900000   17.71400000
 H(Fragment=2)     45.12700000  -89.37500000   10.23300000
 C(Fragment=2)     44.46200000  -90.01500000   10.81200000
 H(Fragment=2)     43.59500000  -90.24900000   10.19400000
 C(Fragment=2)     45.15400000  -91.33000000   11.18400000
 H(Fragment=2)     45.37400000  -91.82500000   10.24200000
 H(Fragment=2)     46.08100000  -91.15800000   11.72400000
 C(Fragment=2)     44.25900000  -92.24600000   12.01600000
 H(Fragment=2)     44.11100000  -91.82100000   12.99800000
 H(Fragment=2)     43.27000000  -92.25400000   11.59900000
 C(Fragment=2)     44.75900000  -93.68000000   12.10100000
 O(Fragment=2)     45.73600000  -94.05600000   11.44900000
 N(Fragment=2)     44.08400000  -94.49000000   12.90800000
 H(Fragment=2)     44.32800000  -95.46600000   12.97400000
 H(Fragment=2)     43.24800000  -94.14900000   13.36600000
 H(Fragment=2)     44.10900000  -89.50700000   11.70900000
 H(Fragment=5)     39.73400000  -89.19300000   13.12400000
 C(Fragment=5)     39.20400000  -89.62100000   13.97500000
 H(Fragment=5)     38.46600000  -90.33400000   13.60700000
 C(Fragment=5)     40.19100000  -90.31700000   14.91600000
 H(Fragment=5)     40.80900000  -89.57400000   15.41000000
 H(Fragment=5)     39.62400000  -90.87600000   15.62500000
 C(Fragment=5)     41.13600000  -91.30500000   14.22200000
 H(Fragment=5)     41.68800000  -90.88200000   13.45900000
 H(Fragment=5)     41.84100000  -91.69200000   14.95500000
 C(Fragment=5)     40.42800000  -92.47000000   13.51800000
 O(Fragment=5)     41.11000000  -93.47600000   13.22600000
 O(Fragment=5)     39.21100000  -92.38900000   13.23600000
 H(Fragment=5)     38.61800000  -88.86800000   14.50200000
 H(Fragment=5)     35.06600000  -88.88800000   12.67300000
 C(Fragment=5)     34.42800000  -89.74900000   12.87400000
 H(Fragment=5)     33.65900000  -89.79800000   12.10300000
 C(Fragment=5)     35.24600000  -91.03000000   12.76600000
 H(Fragment=5)     36.02000000  -91.02600000   13.53400000
 H(Fragment=5)     34.57400000  -91.87200000   12.92400000
 C(Fragment=5)     35.90000000  -91.21300000   11.43400000
 N(Fragment=5)     36.85400000  -92.18100000   11.20200000
 C(Fragment=5)     37.24500000  -92.11400000    9.94100000
 H(Fragment=5)     38.00600000  -92.72500000    9.48200000
 N(Fragment=5)     36.58300000  -91.13500000    9.35000000
 H(Fragment=5)     36.69200000  -90.85700000    8.39000000
 C(Fragment=5)     35.73400000  -90.55600000   10.26000000
 H(Fragment=5)     35.16100000  -89.67000000   10.09400000
 H(Fragment=5)     33.94500000  -89.68500000   13.84900000
 H(Fragment=2)     41.34600000 -101.47100000   12.24000000
 C(Fragment=2)     41.00200000 -101.00100000   11.31900000
 H(Fragment=2)     39.95500000 -100.72600000   11.44300000
 C(Fragment=2)     41.75900000  -99.69500000   11.09400000
 H(Fragment=2)     42.81700000  -99.91500000   10.99000000
 H(Fragment=2)     41.42200000  -99.24400000   10.15900000
 C(Fragment=2)     41.54700000  -98.70000000   12.21000000
 H(Fragment=2)     40.52400000  -98.33700000   12.11600000
 H(Fragment=2)     41.57000000  -99.16800000   13.18400000
 C(Fragment=2)     42.47200000  -97.50400000   12.25200000
 O(Fragment=2)     43.55500000  -97.56700000   11.70700000
 O(Fragment=2)     42.09100000  -96.53300000   12.84300000
 H(Fragment=2)     41.05500000 -101.67900000   10.46700000
 H(Fragment=2)     39.17300000  -94.74400000    6.93600000
 C(Fragment=2)     39.62800000  -95.58600000    7.45700000
 H(Fragment=2)     40.18400000  -95.20400000    8.31300000
 C(Fragment=2)     38.54300000  -96.52800000    7.97200000
 H(Fragment=2)     37.85200000  -96.76000000    7.17300000
 H(Fragment=2)     39.02000000  -97.47100000    8.24500000
 C(Fragment=2)     37.84300000  -96.02400000    9.21000000
 H(Fragment=2)     37.23300000  -95.16000000    8.94500000
 H(Fragment=2)     37.18200000  -96.80000000    9.59300000
 C(Fragment=2)     38.81500000  -95.64000000   10.30500000
 O(Fragment=2)     38.68600000  -94.51100000   10.83300000
 O(Fragment=2)     39.70800000  -96.46200000   10.62500000
 H(Fragment=2)     40.33100000  -96.13000000    6.82700000
 H(Fragment=2)     43.99800000  -95.45400000    7.37200000
 C(Fragment=2)     44.36900000  -95.75700000    8.35100000
 H(Fragment=2)     45.17200000  -95.08100000    8.64300000
 C(Fragment=2)     43.28100000  -95.66900000    9.41800000
 H(Fragment=2)     42.52400000  -96.44500000    9.31800000
 H(Fragment=2)     43.81500000  -95.78200000   10.34800000
 C(Fragment=2)     42.66500000  -94.32100000    9.53000000
 N(Fragment=2)     41.63300000  -94.05900000   10.38300000
 C(Fragment=2)     41.28900000  -92.80300000   10.25300000
 H(Fragment=2)     40.50100000  -92.31400000   10.81000000
 N(Fragment=2)     42.07000000  -92.24300000    9.35800000
 H(Fragment=2)     42.02000000  -91.27800000    9.05200000
 C(Fragment=2)     42.93500000  -93.17000000    8.89100000
 H(Fragment=2)     43.70300000  -92.99700000    8.15200000
 H(Fragment=2)     44.78300000  -96.76100000    8.26200000
 Fe(Fragment=1)    37.73000000  -93.70700000   12.60800000
 Fe(Fragment=3)    40.65400000  -95.10500000   12.05400000
 O(Fragment=5)     36.46100000  -95.38400000   12.42000000
 H(Fragment=5)     36.54400000  -94.80100000   13.17800000
 H(Fragment=5)     36.06600000  -96.21400000   12.69600000
 O(Fragment=2)     39.99014141  -98.49961226   14.05973298
 H(Fragment=2)     39.81014141  -98.70761226   14.97973298
 H(Fragment=2)     39.82114141  -97.56761226   13.90273298
 O(Fragment=4)     38.75700000  -95.57600000   13.62300000
 O(Fragment=4)     39.52100000  -96.04700000   14.84400000


